p tw 100 269
1 2
1 13
1 18
1 99
1 100
2 13
2 16
2 24
2 61
2 98
2 100
3 4
3 5
3 17
3 40
4 5
4 6
4 49
4 70
5 6
5 7
6 7
6 8
6 28
7 8
7 9
7 14
7 80
7 82
8 9
8 10
8 77
9 10
9 11
9 25
9 55
10 11
10 12
11 12
11 14
11 50
12 14
12 15
13 24
13 35
14 15
14 16
15 16
15 17
16 17
16 18
16 25
16 28
16 29
17 18
17 19
17 52
18 19
18 20
18 91
19 20
19 21
19 26
19 70
19 98
20 21
20 22
20 63
21 22
21 23
22 23
22 25
23 25
23 26
24 31
24 35
24 46
25 26
25 27
26 27
26 28
26 51
27 28
27 29
27 51
28 29
28 30
28 67
29 30
29 31
30 31
30 32
30 71
30 78
31 32
31 33
32 33
32 34
33 34
33 36
33 58
33 99
34 36
34 37
34 65
34 78
35 46
35 57
36 37
36 38
36 55
37 38
37 39
38 39
38 40
38 81
38 83
39 40
39 41
39 67
40 41
40 42
40 52
41 42
41 43
41 78
42 43
42 44
42 84
43 44
43 45
43 75
44 45
44 47
45 47
45 48
45 93
46 57
46 68
46 73
47 48
47 49
48 49
48 50
49 50
49 51
50 51
50 52
50 64
51 52
51 53
51 55
51 86
52 53
52 54
53 54
53 55
54 55
54 56
54 95
55 56
55 58
55 76
55 98
56 58
56 59
56 67
57 5
57 22
57 32
57 38
57 68
57 79
58 59
58 60
58 61
59 60
59 61
60 61
60 62
60 91
61 62
61 63
62 63
62 64
63 64
63 65
64 65
64 66
64 70
65 66
65 67
66 67
66 69
67 69
67 70
68 34
68 54
68 79
68 90
69 70
69 71
70 71
70 72
70 83
71 72
71 73
71 99
72 73
72 74
73 74
73 75
74 75
74 76
75 76
75 77
75 94
76 77
76 78
77 78
77 80
78 80
78 81
78 82
78 85
79 3
79 45
79 90
80 81
80 82
81 82
81 83
82 83
82 84
83 84
83 85
84 85
84 86
85 86
85 87
86 87
86 88
87 88
87 89
88 89
88 91
89 91
89 92
90 3
90 4
90 10
90 34
91 92
91 93
92 93
92 94
93 94
93 95
94 95
94 96
95 96
95 97
96 97
96 98
97 98
97 99
98 99
98 100
99 100
